
  32    1
  10

   0   0   3 2 3 5 
   4   4   2 11 4 
   9   7   3 11 8 6 
   1  10   2 8 6 
   1   5   4 10 9 8 7 
   8   6   4 13 10 9 7 
   2  10   5 18 17 15 14 12 
   1   6   4 17 14 13 12 
   1   7   3 18 17 12 
   4   8   3 24 15 14 
   2   8   3 24 17 16 
   5  10   3 24 22 16 
   7  10   2 18 16 
   8  10   1 16 
   8   3   1 16 
  10  10   3 26 20 19 
   9  10   3 26 22 19 
   4  10   3 26 20 19 
   3  10   3 31 25 21 
  10   7   3 31 27 23 
   7  10   2 27 23 
   3   9   2 27 23 
   4   5   3 30 29 28 
   1   7   3 30 29 27 
   6   9   1 27 
   6   5   1 28 
   6   9   1 32
   4   8   1 32
  10   7   1 32
   3  10   1 32
   9  10   1 32
   0   0   0 
